Instance:	[cap: 170, dem: [6, 6, 63, 63, 63, 6, 6, 63, 6, 6, 6, 38, 38, 6, 6, 6, 38, 38, 6, 5, 5, 5, 5, 5, 5]]
Distância:	[distance: [[0, 42, 85, 128, 170, 51, 93, 136, 179, 221, 103, 145, 188, 231, 273, 155, 197, 240, 283, 325, 206, 248, 291, 334, 376], [42, 0, 43, 86, 128, 93, 51, 94, 137, 179, 145, 103, 146, 189, 231, 197, 155, 198, 241, 283, 248, 206, 249, 292, 334], [85, 43, 0, 43, 85, 136, 94, 51, 94, 136, 188, 146, 103, 146, 188, 240, 198, 155, 198, 240, 291, 249, 206, 249, 291], [128, 86, 43, 0, 42, 179, 137, 94, 51, 93, 231, 189, 146, 103, 145, 283, 241, 198, 155, 197, 334, 292, 249, 206, 248], [170, 128, 85, 42, 0, 221, 179, 136, 93, 51, 273, 231, 188, 145, 103, 325, 283, 240, 197, 155, 376, 334, 291, 248, 206], [51, 93, 136, 179, 221, 0, 42, 85, 128, 170, 52, 94, 137, 180, 222, 104, 146, 189, 232, 274, 155, 197, 240, 283, 325], [93, 51, 94, 137, 179, 42, 0, 43, 86, 128, 94, 52, 95, 138, 180, 146, 104, 147, 190, 232, 197, 155, 198, 241, 283], [136, 94, 51, 94, 136, 85, 43, 0, 43, 85, 137, 95, 52, 95, 137, 189, 147, 104, 147, 189, 240, 198, 155, 198, 240], [179, 137, 94, 51, 93, 128, 86, 43, 0, 42, 180, 138, 95, 52, 94, 232, 190, 147, 104, 146, 283, 241, 198, 155, 197], [221, 179, 136, 93, 51, 170, 128, 85, 42, 0, 222, 180, 137, 94, 52, 274, 232, 189, 146, 104, 325, 283, 240, 197, 155], [103, 145, 188, 231, 273, 52, 94, 137, 180, 222, 0, 42, 85, 128, 170, 52, 94, 137, 180, 222, 103, 145, 188, 231, 273], [145, 103, 146, 189, 231, 94, 52, 95, 138, 180, 42, 0, 43, 86, 128, 94, 52, 95, 138, 180, 145, 103, 146, 189, 231], [188, 146, 103, 146, 188, 137, 95, 52, 95, 137, 85, 43, 0, 43, 85, 137, 95, 52, 95, 137, 188, 146, 103, 146, 188], [231, 189, 146, 103, 145, 180, 138, 95, 52, 94, 128, 86, 43, 0, 42, 180, 138, 95, 52, 94, 231, 189, 146, 103, 145], [273, 231, 188, 145, 103, 222, 180, 137, 94, 52, 170, 128, 85, 42, 0, 222, 180, 137, 94, 52, 273, 231, 188, 145, 103], [155, 197, 240, 283, 325, 104, 146, 189, 232, 274, 52, 94, 137, 180, 222, 0, 42, 85, 128, 170, 51, 93, 136, 179, 221], [197, 155, 198, 241, 283, 146, 104, 147, 190, 232, 94, 52, 95, 138, 180, 42, 0, 43, 86, 128, 93, 51, 94, 137, 179], [240, 198, 155, 198, 240, 189, 147, 104, 147, 189, 137, 95, 52, 95, 137, 85, 43, 0, 43, 85, 136, 94, 51, 94, 136], [283, 241, 198, 155, 197, 232, 190, 147, 104, 146, 180, 138, 95, 52, 94, 128, 86, 43, 0, 42, 179, 137, 94, 51, 93], [325, 283, 240, 197, 155, 274, 232, 189, 146, 104, 222, 180, 137, 94, 52, 170, 128, 85, 42, 0, 221, 179, 136, 93, 51], [206, 248, 291, 334, 376, 155, 197, 240, 283, 325, 103, 145, 188, 231, 273, 51, 93, 136, 179, 221, 0, 42, 85, 128, 170], [248, 206, 249, 292, 334, 197, 155, 198, 241, 283, 145, 103, 146, 189, 231, 93, 51, 94, 137, 179, 42, 0, 43, 86, 128], [291, 249, 206, 249, 291, 240, 198, 155, 198, 240, 188, 146, 103, 146, 188, 136, 94, 51, 94, 136, 85, 43, 0, 43, 85], [334, 292, 249, 206, 248, 283, 241, 198, 155, 197, 231, 189, 146, 103, 145, 179, 137, 94, 51, 93, 128, 86, 43, 0, 42], [376, 334, 291, 248, 206, 325, 283, 240, 197, 155, 273, 231, 188, 145, 103, 221, 179, 136, 93, 51, 170, 128, 85, 42, 0]]]
Equipments:	[0, 1, 0, 1, 0, 0, 0, 0, 0, 0, 0, 1, 0, 0, 0, 0, 0, 0, 1, 0, 0, 1, 0, 0, 0]
Coverage:	[1, 1, 1, 3, 3, 11, 11, 11, 3, 3, 11, 11, 11, 18, 18, 21, 21, 18, 18, 18, 21, 21, 21, 18, 18]
Rem. cap.:	[0, 95, 0, 32, 0, 0, 0, 0, 0, 0, 0, 13, 0, 0, 0, 0, 0, 0, 99, 0, 0, 111, 0, 0, 0]
Value:		1201

Instance:	[cap: 121, dem: [6, 6, 63, 63, 63, 6, 6, 63, 6, 6, 6, 38, 38, 6, 6, 6, 38, 38, 6, 5, 5, 5, 5, 5, 5]]
Distância:	[distance: [[0, 42, 85, 128, 170, 51, 93, 136, 179, 221, 103, 145, 188, 231, 273, 155, 197, 240, 283, 325, 206, 248, 291, 334, 376], [42, 0, 43, 86, 128, 93, 51, 94, 137, 179, 145, 103, 146, 189, 231, 197, 155, 198, 241, 283, 248, 206, 249, 292, 334], [85, 43, 0, 43, 85, 136, 94, 51, 94, 136, 188, 146, 103, 146, 188, 240, 198, 155, 198, 240, 291, 249, 206, 249, 291], [128, 86, 43, 0, 42, 179, 137, 94, 51, 93, 231, 189, 146, 103, 145, 283, 241, 198, 155, 197, 334, 292, 249, 206, 248], [170, 128, 85, 42, 0, 221, 179, 136, 93, 51, 273, 231, 188, 145, 103, 325, 283, 240, 197, 155, 376, 334, 291, 248, 206], [51, 93, 136, 179, 221, 0, 42, 85, 128, 170, 52, 94, 137, 180, 222, 104, 146, 189, 232, 274, 155, 197, 240, 283, 325], [93, 51, 94, 137, 179, 42, 0, 43, 86, 128, 94, 52, 95, 138, 180, 146, 104, 147, 190, 232, 197, 155, 198, 241, 283], [136, 94, 51, 94, 136, 85, 43, 0, 43, 85, 137, 95, 52, 95, 137, 189, 147, 104, 147, 189, 240, 198, 155, 198, 240], [179, 137, 94, 51, 93, 128, 86, 43, 0, 42, 180, 138, 95, 52, 94, 232, 190, 147, 104, 146, 283, 241, 198, 155, 197], [221, 179, 136, 93, 51, 170, 128, 85, 42, 0, 222, 180, 137, 94, 52, 274, 232, 189, 146, 104, 325, 283, 240, 197, 155], [103, 145, 188, 231, 273, 52, 94, 137, 180, 222, 0, 42, 85, 128, 170, 52, 94, 137, 180, 222, 103, 145, 188, 231, 273], [145, 103, 146, 189, 231, 94, 52, 95, 138, 180, 42, 0, 43, 86, 128, 94, 52, 95, 138, 180, 145, 103, 146, 189, 231], [188, 146, 103, 146, 188, 137, 95, 52, 95, 137, 85, 43, 0, 43, 85, 137, 95, 52, 95, 137, 188, 146, 103, 146, 188], [231, 189, 146, 103, 145, 180, 138, 95, 52, 94, 128, 86, 43, 0, 42, 180, 138, 95, 52, 94, 231, 189, 146, 103, 145], [273, 231, 188, 145, 103, 222, 180, 137, 94, 52, 170, 128, 85, 42, 0, 222, 180, 137, 94, 52, 273, 231, 188, 145, 103], [155, 197, 240, 283, 325, 104, 146, 189, 232, 274, 52, 94, 137, 180, 222, 0, 42, 85, 128, 170, 51, 93, 136, 179, 221], [197, 155, 198, 241, 283, 146, 104, 147, 190, 232, 94, 52, 95, 138, 180, 42, 0, 43, 86, 128, 93, 51, 94, 137, 179], [240, 198, 155, 198, 240, 189, 147, 104, 147, 189, 137, 95, 52, 95, 137, 85, 43, 0, 43, 85, 136, 94, 51, 94, 136], [283, 241, 198, 155, 197, 232, 190, 147, 104, 146, 180, 138, 95, 52, 94, 128, 86, 43, 0, 42, 179, 137, 94, 51, 93], [325, 283, 240, 197, 155, 274, 232, 189, 146, 104, 222, 180, 137, 94, 52, 170, 128, 85, 42, 0, 221, 179, 136, 93, 51], [206, 248, 291, 334, 376, 155, 197, 240, 283, 325, 103, 145, 188, 231, 273, 51, 93, 136, 179, 221, 0, 42, 85, 128, 170], [248, 206, 249, 292, 334, 197, 155, 198, 241, 283, 145, 103, 146, 189, 231, 93, 51, 94, 137, 179, 42, 0, 43, 86, 128], [291, 249, 206, 249, 291, 240, 198, 155, 198, 240, 188, 146, 103, 146, 188, 136, 94, 51, 94, 136, 85, 43, 0, 43, 85], [334, 292, 249, 206, 248, 283, 241, 198, 155, 197, 231, 189, 146, 103, 145, 179, 137, 94, 51, 93, 128, 86, 43, 0, 42], [376, 334, 291, 248, 206, 325, 283, 240, 197, 155, 273, 231, 188, 145, 103, 221, 179, 136, 93, 51, 170, 128, 85, 42, 0]]]
Equipments:	[0, 1, 0, 1, 0, 0, 1, 0, 0, 1, 0, 0, 0, 0, 0, 1, 0, 1, 0, 1, 0, 0, 0, 0, 0]
Coverage:	[1, 1, 1, 3, 9, 6, 6, 6, 9, 9, 15, 6, 17, 19, 9, 15, 15, 17, 17, 19, 15, 17, 17, 17, 19]
Rem. cap.:	[0, 46, 0, 58, 0, 0, 8, 0, 0, 40, 0, 0, 0, 0, 0, 66, 0, 24, 0, 105, 0, 0, 0, 0, 0]
Value:		991

